(set-info :source |printed by MathSAT|)

1 (4) @37:
(assert true)

4 (11) @45:
(assert true)

11 (20) @45:
(assert true)

20 (26) @45:
(assert true)

26 (33) @45:
(assert true)

33 (37) @45:
(assert true)

37 (40) @45:
(assert true)

40 (50) @45:
(assert true)

50 (55) @45:
(assert true)

55 (57,58) @45:
(assert true)

57 () @342:
(assert true)

58 () @45:
(assert true)

